200
150 150
1 120 272
2 120 522
3 119 981
4 119 189
5 118 456
6 118 930
7 117 898
8 116 58
9 115 629
10 114 31
11 113 964
12 112 919
13 112 930
14 112 334
15 112 621
16 112 179
17 112 537
18 112 146
19 112 847
20 112 853
21 112 668
22 112 817
23 111 381
24 111 650
25 111 9
26 110 151
27 110 637
28 109 941
29 109 128
30 108 837
31 108 757
32 108 527
33 108 264
34 107 255
35 107 996
36 107 691
37 106 806
38 106 777
39 106 475
40 105 81
41 105 290
42 105 549
43 104 387
44 104 928
45 104 256
46 104 56
47 103 722
48 103 980
49 102 616
50 102 498
51 102 685
52 101 152
53 100 768
54 98 411
55 98 93
56 97 354
57 97 279
58 96 427
59 96 312
60 96 423
61 95 198
62 95 545
63 95 580
64 94 308
65 94 910
66 94 997
67 93 302
68 92 325
69 92 448
70 90 25
71 90 179
72 88 201
73 88 723
74 85 114
75 85 913
76 85 412
77 85 57
78 85 373
79 84 713
80 83 230
81 83 429
82 83 568
83 83 391
84 81 210
85 81 481
86 81 617
87 80 993
88 79 831
89 79 143
90 79 214
91 79 205
92 79 216
93 78 863
94 78 891
95 77 773
96 76 895
97 76 69
98 75 825
99 75 249
100 73 352
101 73 266
102 73 51
103 73 937
104 72 92
105 71 671
106 71 757
107 70 395
108 69 98
109 69 781
110 69 612
111 69 839
112 68 722
113 68 666
114 67 755
115 67 773
116 66 753
117 65 117
118 64 466
119 64 112
120 64 12
121 62 159
122 61 356
123 61 305
124 60 981
125 59 906
126 57 511
127 56 904
128 56 172
129 56 319
130 55 656
131 55 547
132 55 256
133 55 611
134 55 887
135 53 565
136 51 102
137 50 639
138 49 259
139 49 508
140 48 228
141 48 752
142 46 15
143 46 886
144 45 870
145 44 36
146 44 530
147 43 277
148 43 343
149 43 163
150 42 343
151 41 234
152 41 236
153 40 71
154 40 141
155 38 905
156 38 356
157 37 435
158 36 855
159 36 877
160 36 706
161 36 112
162 35 84
163 35 172
164 35 680
165 34 822
166 34 300
167 34 587
168 33 469
169 33 530
170 33 217
171 32 612
172 32 671
173 31 100
174 31 454
175 31 68
176 30 248
177 29 836
178 29 301
179 29 832
180 28 20
181 28 874
182 28 958
183 27 952
184 26 740
185 25 69
186 24 844
187 24 346
188 22 520
189 21 849
190 20 486
191 20 519
192 20 46
193 20 514
194 19 952
195 19 50
196 18 625
197 17 205
198 16 424
199 15 492
200 15 585
